Running HiGHS 1.2.1 [date: 2022-10-28, git hash: n/a]
Copyright (c) 2022 ERGO-Code under MIT licence terms
LP   has 6 rows; 5 cols; 16 nonzeros
Solving LP with Orbital Crossover
Using Orbital Crossover
  Iteration        Objective     Infeasibilities num(sum)
          0     2.0000000000e+00 Pr: 0(0) 0s
          2     2.0000000000e+00 Pr: 0(0) 0s
Model   status      : Optimal
OC Major   iterations: 1
OC Minor   iterations: 2
Objective value     :  2.0000000000e+00
HiGHS run time      :          0.00
Solving LP without presolve or with basis
Using EKK dual simplex solver - serial
  Iteration        Objective     Infeasibilities num(sum)
          0     2.0000032862e+00 Pr: 3(1.5) 0s
          1     2.0000000000e+00 Pr: 0(0) 0s
Model   status      : Optimal
Simplex   iterations: 1
Objective value     :  2.0000000000e+00
HiGHS run time      :          0.00
